
===== New CPLEX run =====
Instance: /home/yorig/tuner/mpils-tests/instances/miplib/medium-1/mushroom-best.mps
Config: /scratch/yorig/mpils-results-grid-seconds-5/medium-1/24proc/seed-2/7_mushroom-best_seed-2_20260503_110448/expansion/config_param_CPXPARAM_Preprocessing_Symmetry_0_iter_2.prm
========================

Selected objective sense:  MINIMIZE
Selected objective  name:  obj
Selected RHS        name:  rhs
Selected bound      name:  bnd
Version identifier: 22.1.2.0 | 2024-11-26 | 0edbb82fd
CPXPARAM_Threads                                 8
CPXPARAM_Parallel                                1
CPXPARAM_MIP_Cuts_Cliques                        1
CPXPARAM_MIP_Cuts_Covers                         1
CPXPARAM_MIP_Strategy_VariableSelect             2
CPXPARAM_MIP_Cuts_FlowCovers                     1
CPXPARAM_MIP_Cuts_Implied                        2
CPXPARAM_MIP_Cuts_GUBCovers                      -1
CPXPARAM_MIP_Limits_GomoryCand                   10
CPXPARAM_MIP_Cuts_Gomory                         -1
CPXPARAM_MIP_Cuts_PathCut                        1
CPXPARAM_MIP_Cuts_MIRCut                         -1
CPXPARAM_MIP_Cuts_Disjunctive                    2
CPXPARAM_Emphasis_MIP                            3
CPXPARAM_Preprocessing_Symmetry                  0
CPXPARAM_MIP_Strategy_RINSHeur                   200
CPXPARAM_TimeLimit                               5
CPXPARAM_MIP_Limits_ProbeTime                    120
Found incumbent of value 8124.895732 after 0.00 sec. (1.54 ticks)
Tried aggregator 2 times.
MIP Presolve eliminated 88 rows and 0 columns.
MIP Presolve modified 8124 coefficients.
Aggregator did 4 substitutions.
Reduced MIP has 8488 rows, 8464 columns, and 180316 nonzeros.
Reduced MIP has 8237 binaries, 114 generals, 0 SOSs, and 0 indicators.
Presolve time = 0.05 sec. (69.18 ticks)
Probing time = 0.00 sec. (2.69 ticks)
Tried aggregator 2 times.
MIP Presolve modified 6649 coefficients.
Aggregator did 44 substitutions.
Reduced MIP has 8444 rows, 8420 columns, and 180228 nonzeros.
Reduced MIP has 8237 binaries, 183 generals, 0 SOSs, and 0 indicators.
Presolve time = 0.06 sec. (84.52 ticks)
Probing time = 0.00 sec. (2.82 ticks)
MIP emphasis: best bound.
MIP search method: dynamic search.
Parallel mode: deterministic, using up to 8 threads.
Root relaxation solution time = 0.15 sec. (206.49 ticks)

        Nodes                                         Cuts/
   Node  Left     Objective  IInf  Best Integer    Best Bound    ItCnt     Gap

*     0+    0                         8124.8957        0.0000           100.00%
*     0+    0                         3916.5463        0.0000           100.00%
*     0+    0                         3916.5456        0.0000           100.00%
*     0+    0                         3916.5450        0.0000           100.00%
*     0+    0                         3916.0000        0.0000           100.00%
      0     0        0.0000    26     3916.0000        0.0000      406  100.00%
*     0+    0                           38.1106        0.0000           100.00%
*     0+    0                            0.0711        0.0000            99.98%
*     0+    0                            0.0632        0.0000            99.98%
      0     0  -1.00000e+75     0        0.0632        0.0000      406   99.98%

Repeating presolve.
Tried aggregator 1 time.
MIP Presolve eliminated 0 rows and 8124 columns.
MIP Presolve modified 8124 coefficients.
Reduced MIP has 8444 rows, 296 columns, and 172104 nonzeros.
Reduced MIP has 113 binaries, 183 generals, 0 SOSs, and 0 indicators.
Presolve time = 0.04 sec. (56.40 ticks)
Probing time = 0.00 sec. (2.05 ticks)
Tried aggregator 1 time.
Reduced MIP has 8444 rows, 296 columns, and 172104 nonzeros.
Reduced MIP has 113 binaries, 183 generals, 0 SOSs, and 0 indicators.
Presolve time = 0.02 sec. (32.68 ticks)
Represolve time = 0.07 sec. (109.57 ticks)
Probing time = 0.00 sec. (2.04 ticks)
MIP emphasis: best bound.
MIP search method: dynamic search.
Parallel mode: deterministic, using up to 8 threads.
Root relaxation solution time = 0.11 sec. (164.13 ticks)

        Nodes                                         Cuts/
   Node  Left     Objective  IInf  Best Integer    Best Bound    ItCnt     Gap

*     0+    0                            0.0632        0.0000            99.98%
      0     0        0.0127    10        0.0632        0.0127      747   79.94%
*     0+    0                            0.0632        0.0174            72.41%
      0     0  -1.00000e+75     0        0.0632        0.0174      747   72.41%
      0     2        0.0127    10        0.0632        0.0174      747   72.41%
Elapsed time = 1.28 sec. (2139.26 ticks, tree = 0.02 MB, solutions = 8)
      1     3        0.0174    11        0.0632        0.0174      938   72.41%
      4     6        0.0364     8        0.0632        0.0174     1146   72.41%
      9     8        0.0253    30        0.0632        0.0174     1407   72.41%
     25     4        0.0190    59        0.0632        0.0185     1104   70.78%
     39    33        0.0316    28        0.0632        0.0190     2750   69.91%
*    40+    3                            0.0553        0.0190            65.62%
     65    50        0.0285     7        0.0553        0.0190     3924   65.62%
    108    88        0.0269     7        0.0553        0.0218     6328   60.65%
    152    99        0.0320    50        0.0553        0.0218     7077   60.65%
    202   179        0.0380    64        0.0553        0.0275    12267   50.34%
    430   368        0.0380    14        0.0553        0.0342    23914   38.28%
Elapsed time = 3.99 sec. (5771.49 ticks, tree = 0.53 MB, solutions = 9)
    721   576        0.0459    55        0.0553        0.0373    36067   32.68%

Clique cuts applied:  0
Cover cuts applied:  0
Implied bound cuts applied:  0
Flow cuts applied:  0
Flow path cuts applied:  0
Disjunctive cuts applied:  0
Cone linearizations applied:  0

Root node processing (before b&c):
  Real time             =    1.27 sec. (2131.42 ticks)
Parallel b&c, 8 threads:
  Real time             =    3.75 sec. (4875.24 ticks)
  Sync time (average)   =    0.65 sec.
  Wait time (average)   =    0.00 sec.
                          ------------
Total (root+branch&cut) =    5.01 sec. (7006.65 ticks)
Gap: 29.41%
Upper bound: 0.0553338
Lower bound: 0.0390587
End of CPLEX run. Time: 5.01705 seconds
